(set-logic QF_LIA)
(declare-fun x0 () Int)
(declare-fun x1 () Int)
(declare-fun x2 () Int)
(declare-fun x3 () Int)
(declare-fun x4 () Int)
(declare-fun x5 () Int)
(declare-fun x6 () Int)
(declare-fun x7 () Int)
(declare-fun x8 () Int)
(declare-fun x9 () Int)
(declare-fun A0 () Bool)
(declare-fun A1 () Bool)
(declare-fun A2 () Bool)
(declare-fun A4 () Bool)
(declare-fun A6 () Bool)
(declare-fun A7 () Bool)
(declare-fun A8 () Bool)
(declare-fun A9 () Bool)
(assert (let ((.def_0 (* (- 1) x1))) (let ((.def_1 (< .def_0 (- 1)))) (let ((.def_2 (not .def_1))) (let ((.def_3 (* (- 1) x2))) (let ((.def_4 (< .def_3 1))) (let ((.def_5 (not .def_4))) (let ((.def_6 (or .def_5 .def_2))) (let ((.def_7 (not .def_6))) (let ((.def_8 (* (- 1) x5))) (let ((.def_9 (* (- 1) x9))) (let ((.def_10 (+ .def_9 .def_8))) (let ((.def_11 (< .def_10 (- 1)))) (let ((.def_12 (* (- 1) x7))) (let ((.def_13 (< .def_12 (- 1)))) (let ((.def_14 (or .def_13 .def_11))) (let ((.def_15 (not .def_14))) (let ((.def_16 (= .def_15 .def_7))) (let ((.def_17 (not .def_16))) (let ((.def_18 (* (- 1) x4))) (let ((.def_19 (< .def_18 1))) (let ((.def_20 (not .def_19))) (let ((.def_21 (* 1 x9))) (let ((.def_22 (* 1 x8))) (let ((.def_23 (+ .def_22 .def_21))) (let ((.def_24 (< .def_23 1))) (let ((.def_25 (not .def_24))) (let ((.def_26 (or .def_25 .def_20))) (let ((.def_27 (not .def_26))) (let ((.def_28 (* (- 1) x8))) (let ((.def_29 (+ .def_0 .def_28))) (let ((.def_30 (< .def_29 1))) (let ((.def_31 (< .def_22 1))) (let ((.def_32 (or .def_31 .def_30))) (let ((.def_33 (or .def_32 .def_27))) (let ((.def_34 (not .def_33))) (let ((.def_35 (and .def_34 .def_17))) (let ((.def_36 (< .def_28 1))) (let ((.def_37 (< .def_28 (- 1)))) (let ((.def_38 (= .def_37 .def_36))) (let ((.def_39 (not .def_36))) (let ((.def_40 (and A4 .def_39))) (let ((.def_41 (or .def_40 .def_38))) (let ((.def_42 (* (- 1) x6))) (let ((.def_43 (+ .def_42 .def_0))) (let ((.def_44 (< .def_43 1))) (let ((.def_45 (not .def_44))) (let ((.def_46 (* 1 x5))) (let ((.def_47 (< .def_46 (- 1)))) (let ((.def_48 (not .def_47))) (let ((.def_49 (or .def_48 .def_45))) (let ((.def_50 (not .def_49))) (let ((.def_51 (* 1 x7))) (let ((.def_52 (< .def_51 1))) (let ((.def_53 (not .def_52))) (let ((.def_54 (or A9 .def_53))) (let ((.def_55 (not .def_54))) (let ((.def_56 (= .def_55 .def_50))) (let ((.def_57 (not .def_56))) (let ((.def_58 (or .def_57 .def_41))) (let ((.def_59 (or .def_58 .def_35))) (let ((.def_60 (+ .def_12 .def_21))) (let ((.def_61 (< .def_60 1))) (let ((.def_62 (not .def_61))) (let ((.def_63 (and A2 .def_62))) (let ((.def_64 (+ .def_0 .def_8))) (let ((.def_65 (< .def_64 (- 1)))) (let ((.def_66 (not .def_65))) (let ((.def_67 (and A2 .def_66))) (let ((.def_68 (not .def_67))) (let ((.def_69 (and .def_68 .def_63))) (let ((.def_70 (not A0))) (let ((.def_71 (and A8 .def_70))) (let ((.def_72 (* 1 x2))) (let ((.def_73 (+ .def_12 .def_72))) (let ((.def_74 (< .def_73 (- 1)))) (let ((.def_75 (and .def_74 A2))) (let ((.def_76 (or .def_75 .def_71))) (let ((.def_77 (and .def_76 .def_69))) (let ((.def_78 (not A1))) (let ((.def_79 (and A4 .def_78))) (let ((.def_80 (not .def_79))) (let ((.def_81 (not A7))) (let ((.def_82 (or .def_81 A6))) (let ((.def_83 (and .def_82 .def_80))) (let ((.def_84 (not .def_83))) (let ((.def_85 (not A2))) (let ((.def_86 (and .def_85 A1))) (let ((.def_87 (* 1 x6))) (let ((.def_88 (< .def_87 1))) (let ((.def_89 (not .def_88))) (let ((.def_90 (and .def_89 A1))) (let ((.def_91 (not .def_90))) (let ((.def_92 (or .def_91 .def_86))) (let ((.def_93 (or .def_92 .def_84))) (let ((.def_94 (= .def_93 .def_77))) (let ((.def_95 (or .def_94 .def_59))) (let ((.def_96 (not .def_95))) (let ((.def_97 (<= x9 1))) (let ((.def_98 (<= 0 x9))) (let ((.def_99 (<= x8 1))) (let ((.def_100 (<= 0 x8))) (let ((.def_101 (<= x7 1))) (let ((.def_102 (<= 0 x7))) (let ((.def_103 (<= x6 1))) (let ((.def_104 (<= 0 x6))) (let ((.def_105 (<= x5 1))) (let ((.def_106 (<= 0 x5))) (let ((.def_107 (<= x4 1))) (let ((.def_108 (<= 0 x4))) (let ((.def_109 (<= x3 1))) (let ((.def_110 (<= 0 x3))) (let ((.def_111 (<= x2 1))) (let ((.def_112 (<= 0 x2))) (let ((.def_113 (<= x1 1))) (let ((.def_114 (<= 0 x1))) (let ((.def_115 (<= x0 1))) (let ((.def_116 (<= 0 x0))) (let ((.def_117 (and .def_116 .def_115 .def_114 .def_113 .def_112 .def_111 .def_110 .def_109 .def_108 .def_107 .def_106 .def_105 .def_104 .def_103 .def_102 .def_101 .def_100 .def_99 .def_98 .def_97 .def_96))) .def_117)))))))))))))))))))))))))))))))))))))))))))))))))))))))))))))))))))))))))))))))))))))))))))))))))))))))))))))))))))))))
(check-sat)
